9
2147483647 8 64 6 87 45 1 17 46 
8 2147483647 8 50 89 55 3 35 61 
64 8 2147483647 100 19 61 29 61 69 
6 50 100 2147483647 7 86 38 94 24 
87 89 19 7 2147483647 18 97 8 44 
45 55 61 86 18 2147483647 41 3 88 
1 3 29 38 97 41 2147483647 42 5 
17 35 61 94 8 3 42 2147483647 27 
46 61 69 24 44 88 5 27 2147483647 
